100
1000
264
264
263
261
260
259
258
258
257
256
250
249
245
243
242
239
239
237
235
233
231
230
226
216
209
206
201
200
195
188
186
185
185
183
179
176
171
169
167
166
165
164
158
154
148
148
143
141
133
133
130
128
127
121
121
118
118
116
114
113
112
110
101
101
96
94
92
91
87
87
86
85
83
83
81
81
72
63
63
61
57
54
51
50
50
50
47
45
42
39
37
33
31
29
27
19
19
18
18
16
